Route #1: 0 20 51 18 40 48 32 16 9 39 0
Route #2: 0 21 13 11 7 28 30 44 49 29 0
Route #3: 0 25 52 15 19 23 45 37 22 8 1 0
Route #4: 0 41 4 46 10 35 27 0
Route #5: 0 31 47 34 14 5 3 0
Route #6: 0 42 43 36 6 33 0
Route #7: 0 38 26 50 2 12 17 24 0
Cost 1674:
